language Essence 1.3

letting blksize_delta be
        function(1 --> 6, 2 --> 6, 3 --> 6, 4 --> 6, 5 --> 6, 6 --> 5, 7 --> 6, 8 --> 4, 9 --> 2, 10 --> 6)
letting maxcars be
        function(1 --> 10, 2 --> 10, 3 --> 10, 4 --> 10, 5 --> 10, 6 --> 10, 7 --> 10, 8 --> 10, 9 --> 10, 10 --> 10)
letting n_cars be 190
letting n_classes be 2
letting n_options be 10
letting quantity be function(1 --> 95, 2 --> 95)
letting usage be relation((1, 1), (1, 2), (1, 3), (1, 4), (1, 5), (1, 6), (1, 7), (1, 8), (1, 9), (2, 10))
$ Visualisation for usage
$  1  1
$  1  2
$  1  3
$  1  4
$  1  5
$  1  6
$  1  7
$  1  8
$  1  9
$  2 10

